letting n =  10
letting blocks =  [[1, 1], [1, 3], [1, 4], [1, 6], [2, 4], [2, 5], [2, 6], [2, 9], [2, 10], [3, 1], [3, 5], [3, 8], [4, 1], [4, 2], [4, 3], [4, 4], [4, 7], [4, 9], [5, 1], [5, 2], [5, 6], [5, 7], [5, 8], [5, 10], [6, 2], [6, 3], [6, 5], [6, 7], [6, 8], [7, 1], [7, 3], [7, 8], [7, 10], [8, 8], [8, 9], [9, 1], [9, 5], [10, 2], [10, 3], [10, 4], [10, 6], [10, 9]]
